32      4       
16      16      15      16      
0       0       0       0       0       1       2       
10      16      0       9       0       1       3       
2       0       0       15      16      1       4       
8       0       16      15      0       2       8       5       
1       15      0       15      0       1       6       
10      16      0       0       12      1       7       
5       16      0       15      0       1       9       
1       0       0       14      16      1       9       
9       0       16      15      0       2       15      10      
8       0       14      0       8       1       11      
4       0       0       15      16      2       25      12      
3       16      0       0       16      1       13      
3       16      0       0       16      1       14      
5       10      0       0       14      1       16      
1       9       16      0       0       1       16      
9       0       16      15      0       1       17      
3       0       16      15      0       2       23      18      
1       15      5       0       0       2       20      19      
9       0       16      0       14      1       21      
6       16      16      0       0       1       21      
9       0       0       13      16      1       22      
7       12      0       15      0       1       24      
5       16      0       0       12      1       24      
5       0       16      0       16      2       27      26      
8       11      0       3       0       2       27      26      
9       0       16      0       12      1       28      
3       16      16      0       0       1       28      
6       0       5       15      0       1       29      
4       0       0       14      16      1       30      
7       0       16      0       16      1       31      
5       16      16      0       0       1       32      
0       0       0       0       0       0       
